8
2147483647 67 95 70 72 48 71 69 
67 2147483647 40 19 99 65 21 10 
95 40 2147483647 43 47 52 81 21 
70 19 43 2147483647 17 75 9 44 
72 99 47 17 2147483647 12 98 26 
48 65 52 75 12 2147483647 33 60 
71 21 81 9 98 33 2147483647 82 
69 10 21 44 26 60 82 2147483647 
